sat
(:max-memory                   18.24
 :memory                       18.04
 :nlsat-conflicts              5
 :nlsat-decisions              3
 :nlsat-irrational-assignments 1
 :nlsat-propagations           30
 :nlsat-stages                 8
 :num-allocs                   113727
 :rlimit-count                 36525
 :time                         0.04
 :total-time                   0.05)
